; Regular expressions using Brzozowski derivatives (see the step function)
; This version does not use smart constructors.
(declare-datatypes (a)
  ((list (nil) (cons (head a) (tail (list a))))))
(declare-datatypes () ((A (X) (Y))))
(declare-datatypes ()
  ((R (Nil)
     (Eps) (Atom (Atom_0 A)) (Plus (Plus_0 R) (Plus_1 R))
     (And (And_0 R) (And_1 R)) (Seq (Seq_0 R) (Seq_1 R))
     (Star (Star_0 R)))))
(define-fun
  eqA
    ((x A) (y A)) Bool
    (match x
      (case X
        (match y
          (case X true)
          (case Y false)))
      (case Y
        (match y
          (case X false)
          (case Y true)))))
(define-fun-rec
  eqList
    ((x (list A)) (y (list A))) Bool
    (match x
      (case nil
        (match y
          (case nil true)
          (case (cons z x2) false)))
      (case (cons x3 xs)
        (match y
          (case nil false)
          (case (cons y2 ys) (and (eqA x3 y2) (eqList xs ys)))))))
(define-fun-rec
  eps
    ((x R)) Bool
    (match x
      (case default false)
      (case Eps true)
      (case (Plus p q) (or (eps p) (eps q)))
      (case (And p2 q2) (and (eps p2) (eps q2)))
      (case (Seq p3 q3) (and (eps p3) (eps q3)))
      (case (Star y) true)))
(define-fun epsR ((x R)) R (ite (eps x) Eps Nil))
(define-fun-rec
  step
    ((x R) (y A)) R
    (match x
      (case default Nil)
      (case (Atom a) (ite (eqA a y) Eps Nil))
      (case (Plus p q) (Plus (step p y) (step q y)))
      (case (And p2 q2) (And (step p2 y) (step q2 y)))
      (case (Seq p3 q3)
        (Plus (Seq (step p3 y) q3) (Seq (epsR p3) (step q3 y))))
      (case (Star p4) (Seq (step p4 y) x))))
(define-fun-rec
  recognise
    ((x R) (y (list A))) Bool
    (match y
      (case nil (eps x))
      (case (cons z xs) (recognise (step x z) xs))))
(assert-not
  (forall ((a A) (s (list A)))
    (= (recognise (Atom a) s) (eqList s (cons a (as nil (list A)))))))
(check-sat)
